60
1 0 25
2 0 38
2 1 19
3 0 32
3 1 33
3 2 18
4 0 11
4 1 33
4 2 1
4 3 14
5 0 23
5 1 30
5 2 36
5 3 13
5 4 35
6 0 40
6 1 2
6 2 35
6 3 6
6 4 1
6 5 3
7 0 3
7 1 17
7 2 5
7 3 13
7 4 7
7 5 29
7 6 39
8 0 6
8 1 34
8 2 23
8 3 10
8 4 26
8 5 24
8 6 33
8 7 28
9 0 20
9 1 39
9 2 26
9 3 31
9 4 35
9 5 15
9 6 2
9 7 40
9 8 31
10 0 21
10 1 4
10 2 20
10 3 26
10 4 5
10 5 25
10 6 39
10 7 17
10 8 7
10 9 26
11 0 29
11 1 28
11 2 36
11 3 36
11 4 10
11 5 1
11 6 11
11 7 37
11 8 37
11 9 33
11 10 24
12 0 17
12 1 35
12 2 36
12 3 40
12 4 25
12 5 17
12 6 17
12 7 37
12 8 3
12 9 14
12 10 40
12 11 35
13 0 2
13 1 33
13 2 33
13 3 26
13 4 23
13 5 40
13 6 13
13 7 21
13 8 19
13 9 17
13 10 40
13 11 26
13 12 10
14 0 3
14 1 29
14 2 13
14 3 26
14 4 6
14 5 14
14 6 38
14 7 1
14 8 8
14 9 1
14 10 28
14 11 5
14 12 26
14 13 27
15 0 26
15 1 28
15 2 33
15 3 24
15 4 11
15 5 1
15 6 1
15 7 3
15 8 2
15 9 23
15 10 26
15 11 12
15 12 18
15 13 7
15 14 21
16 0 15
16 1 14
16 2 7
16 3 11
16 4 36
16 5 38
16 6 39
16 7 35
16 8 13
16 9 25
16 10 20
16 11 38
16 12 25
16 13 40
16 14 27
16 15 28
17 0 8
17 1 27
17 2 6
17 3 9
17 4 23
17 5 5
17 6 8
17 7 22
17 8 14
17 9 28
17 10 11
17 11 35
17 12 1
17 13 29
17 14 17
17 15 34
17 16 6
18 0 5
18 1 8
18 2 31
18 3 21
18 4 16
18 5 3
18 6 30
18 7 28
18 8 11
18 9 30
18 10 37
18 11 39
18 12 35
18 13 7
18 14 28
18 15 8
18 16 39
18 17 27
19 0 26
19 1 28
19 2 31
19 3 28
19 4 33
19 5 35
19 6 9
19 7 14
19 8 21
19 9 7
19 10 35
19 11 13
19 12 15
19 13 24
19 14 29
19 15 30
19 16 36
19 17 35
19 18 18
20 0 1
20 1 25
20 2 8
20 3 16
20 4 29
20 5 3
20 6 36
20 7 30
20 8 33
20 9 39
20 10 14
20 11 35
20 12 18
20 13 32
20 14 18
20 15 35
20 16 19
20 17 27
20 18 3
20 19 37
21 0 17
21 1 27
21 2 15
21 3 28
21 4 9
21 5 18
21 6 40
21 7 35
21 8 9
21 9 36
21 10 17
21 11 1
21 12 24
21 13 32
21 14 9
21 15 36
21 16 6
21 17 31
21 18 23
21 19 2
21 20 4
22 0 21
22 1 28
22 2 15
22 3 22
22 4 21
22 5 38
22 6 36
22 7 6
22 8 25
22 9 19
22 10 6
22 11 36
22 12 6
22 13 4
22 14 20
22 15 27
22 16 11
22 17 17
22 18 28
22 19 33
22 20 12
22 21 28
23 0 18
23 1 10
23 2 24
23 3 26
23 4 17
23 5 24
23 6 10
23 7 19
23 8 17
23 9 26
23 10 16
23 11 23
23 12 23
23 13 28
23 14 4
23 15 34
23 16 18
23 17 38
23 18 12
23 19 27
23 20 27
23 21 36
23 22 29
24 0 23
24 1 26
24 2 13
24 3 12
24 4 28
24 5 6
24 6 15
24 7 9
24 8 6
24 9 38
24 10 39
24 11 28
24 12 38
24 13 29
24 14 11
24 15 4
24 16 13
24 17 11
24 18 2
24 19 2
24 20 22
24 21 5
24 22 15
24 23 29
25 0 10
25 1 27
25 2 27
25 3 39
25 4 4
25 5 6
25 6 10
25 7 32
25 8 29
25 9 36
25 10 32
25 11 28
25 12 13
25 13 15
25 14 17
25 15 40
25 16 9
25 17 39
25 18 12
25 19 19
25 20 34
25 21 10
25 22 1
25 23 20
25 24 38
26 0 4
26 1 39
26 2 35
26 3 10
26 4 23
26 5 24
26 6 33
26 7 21
26 8 29
26 9 21
26 10 34
26 11 4
26 12 21
26 13 10
26 14 23
26 15 38
26 16 36
26 17 25
26 18 26
26 19 13
26 20 7
26 21 37
26 22 15
26 23 2
26 24 27
26 25 4
27 0 22
27 1 18
27 2 11
27 3 6
27 4 32
27 5 6
27 6 37
27 7 33
27 8 20
27 9 13
27 10 30
27 11 34
27 12 24
27 13 16
27 14 3
27 15 1
27 16 19
27 17 28
27 18 17
27 19 28
27 20 22
27 21 10
27 22 17
27 23 8
27 24 32
27 25 7
27 26 14
28 0 14
28 1 39
28 2 22
28 3 12
28 4 22
28 5 2
28 6 39
28 7 23
28 8 14
28 9 33
28 10 28
28 11 30
28 12 35
28 13 9
28 14 14
28 15 12
28 16 40
28 17 11
28 18 26
28 19 2
28 20 38
28 21 9
28 22 24
28 23 20
28 24 29
28 25 39
28 26 37
28 27 38
29 0 23
29 1 28
29 2 30
29 3 6
29 4 19
29 5 32
29 6 7
29 7 22
29 8 1
29 9 5
29 10 31
29 11 26
29 12 27
29 13 12
29 14 8
29 15 34
29 16 40
29 17 17
29 18 28
29 19 38
29 20 7
29 21 26
29 22 8
29 23 6
29 24 10
29 25 25
29 26 2
29 27 40
29 28 27
30 0 8
30 1 22
30 2 40
30 3 18
30 4 7
30 5 8
30 6 27
30 7 10
30 8 20
30 9 39
30 10 2
30 11 38
30 12 13
30 13 10
30 14 8
30 15 14
30 16 11
30 17 39
30 18 12
30 19 28
30 20 39
30 21 19
30 22 40
30 23 29
30 24 16
30 25 34
30 26 17
30 27 35
30 28 32
30 29 28
31 0 38
31 1 7
31 2 1
31 3 37
31 4 20
31 5 3
31 6 31
31 7 33
31 8 10
31 9 36
31 10 36
31 11 13
31 12 27
31 13 33
31 14 39
31 15 23
31 16 21
31 17 28
31 18 20
31 19 1
31 20 11
31 21 36
31 22 26
31 23 19
31 24 27
31 25 3
31 26 21
31 27 15
31 28 39
31 29 31
31 30 35
32 0 24
32 1 30
32 2 32
32 3 12
32 4 39
32 5 10
32 6 3
32 7 4
32 8 2
32 9 35
32 10 23
32 11 12
32 12 1
32 13 2
32 14 2
32 15 22
32 16 36
32 17 39
32 18 7
32 19 34
32 20 35
32 21 22
32 22 39
32 23 22
32 24 38
32 25 23
32 26 28
32 27 30
32 28 9
32 29 11
32 30 32
32 31 14
33 0 5
33 1 21
33 2 8
33 3 2
33 4 23
33 5 14
33 6 20
33 7 11
33 8 10
33 9 24
33 10 17
33 11 39
33 12 40
33 13 36
33 14 32
33 15 9
33 16 38
33 17 10
33 18 1
33 19 31
33 20 20
33 21 34
33 22 22
33 23 17
33 24 26
33 25 3
33 26 36
33 27 39
33 28 25
33 29 26
33 30 19
33 31 23
33 32 28
34 0 18
34 1 34
34 2 6
34 3 21
34 4 19
34 5 23
34 6 13
34 7 31
34 8 38
34 9 19
34 10 18
34 11 16
34 12 19
34 13 1
34 14 5
34 15 8
34 16 36
34 17 18
34 18 25
34 19 11
34 20 11
34 21 20
34 22 6
34 23 27
34 24 28
34 25 35
34 26 22
34 27 14
34 28 25
34 29 3
34 30 4
34 31 38
34 32 11
34 33 2
35 0 23
35 1 19
35 2 19
35 3 30
35 4 26
35 5 27
35 6 13
35 7 22
35 8 4
35 9 15
35 10 37
35 11 11
35 12 31
35 13 22
35 14 28
35 15 14
35 16 3
35 17 33
35 18 26
35 19 30
35 20 8
35 21 15
35 22 22
35 23 19
35 24 35
35 25 25
35 26 14
35 27 18
35 28 4
35 29 15
35 30 26
35 31 32
35 32 34
35 33 31
35 34 25
36 0 19
36 1 10
36 2 33
36 3 16
36 4 2
36 5 15
36 6 2
36 7 30
36 8 27
36 9 24
36 10 17
36 11 2
36 12 10
36 13 24
36 14 38
36 15 2
36 16 12
36 17 34
36 18 9
36 19 30
36 20 10
36 21 25
36 22 8
36 23 40
36 24 37
36 25 30
36 26 19
36 27 24
36 28 27
36 29 18
36 30 16
36 31 2
36 32 7
36 33 16
36 34 24
36 35 21
37 0 3
37 1 13
37 2 15
37 3 8
37 4 30
37 5 8
37 6 21
37 7 15
37 8 12
37 9 32
37 10 21
37 11 5
37 12 1
37 13 32
37 14 34
37 15 30
37 16 9
37 17 10
37 18 40
37 19 10
37 20 10
37 21 27
37 22 18
37 23 32
37 24 32
37 25 9
37 26 35
37 27 11
37 28 9
37 29 32
37 30 1
37 31 6
37 32 4
37 33 37
37 34 4
37 35 25
37 36 16
38 0 33
38 1 34
38 2 24
38 3 1
38 4 33
38 5 18
38 6 19
38 7 26
38 8 18
38 9 33
38 10 33
38 11 36
38 12 16
38 13 10
38 14 21
38 15 18
38 16 15
38 17 11
38 18 8
38 19 27
38 20 30
38 21 6
38 22 15
38 23 27
38 24 5
38 25 18
38 26 10
38 27 4
38 28 21
38 29 24
38 30 39
38 31 31
38 32 30
38 33 22
38 34 16
38 35 17
38 36 34
38 37 19
39 0 6
39 1 25
39 2 15
39 3 22
39 4 18
39 5 5
39 6 11
39 7 11
39 8 22
39 9 32
39 10 22
39 11 21
39 12 7
39 13 7
39 14 33
39 15 21
39 16 27
39 17 14
39 18 17
39 19 24
39 20 26
39 21 11
39 22 12
39 23 35
39 24 4
39 25 9
39 26 29
39 27 34
39 28 32
39 29 27
39 30 15
39 31 8
39 32 40
39 33 3
39 34 27
39 35 12
39 36 30
39 37 38
39 38 40
40 0 17
40 1 30
40 2 25
40 3 23
40 4 10
40 5 7
40 6 13
40 7 31
40 8 24
40 9 37
40 10 24
40 11 19
40 12 19
40 13 21
40 14 2
40 15 21
40 16 15
40 17 11
40 18 4
40 19 14
40 20 35
40 21 18
40 22 8
40 23 27
40 24 35
40 25 2
40 26 24
40 27 15
40 28 1
40 29 31
40 30 26
40 31 7
40 32 40
40 33 22
40 34 13
40 35 35
40 36 38
40 37 36
40 38 16
40 39 40
41 0 3
41 1 32
41 2 12
41 3 10
41 4 8
41 5 31
41 6 39
41 7 4
41 8 38
41 9 19
41 10 31
41 11 20
41 12 28
41 13 2
41 14 21
41 15 11
41 16 17
41 17 39
41 18 12
41 19 38
41 20 8
41 21 3
41 22 22
41 23 5
41 24 5
41 25 35
41 26 9
41 27 14
41 28 19
41 29 38
41 30 24
41 31 7
41 32 30
41 33 13
41 34 30
41 35 8
41 36 37
41 37 16
41 38 25
41 39 38
41 40 30
42 0 36
42 1 20
42 2 27
42 3 7
42 4 33
42 5 3
42 6 9
42 7 10
42 8 20
42 9 26
42 10 23
42 11 37
42 12 39
42 13 37
42 14 16
42 15 28
42 16 21
42 17 19
42 18 29
42 19 35
42 20 39
42 21 6
42 22 33
42 23 16
42 24 9
42 25 22
42 26 34
42 27 33
42 28 37
42 29 19
42 30 12
42 31 4
42 32 13
42 33 12
42 34 21
42 35 32
42 36 33
42 37 12
42 38 24
42 39 9
42 40 29
42 41 14
43 0 25
43 1 27
43 2 2
43 3 37
43 4 6
43 5 8
43 6 22
43 7 38
43 8 4
43 9 15
43 10 12
43 11 5
43 12 29
43 13 27
43 14 15
43 15 20
43 16 2
43 17 35
43 18 33
43 19 34
43 20 13
43 21 18
43 22 19
43 23 37
43 24 3
43 25 29
43 26 17
43 27 15
43 28 36
43 29 20
43 30 25
43 31 11
43 32 1
43 33 7
43 34 22
43 35 20
43 36 20
43 37 31
43 38 31
43 39 9
43 40 7
43 41 9
43 42 7
44 0 12
44 1 7
44 2 40
44 3 7
44 4 21
44 5 18
44 6 35
44 7 37
44 8 31
44 9 11
44 10 10
44 11 21
44 12 28
44 13 13
44 14 21
44 15 27
44 16 8
44 17 16
44 18 19
44 19 17
44 20 17
44 21 31
44 22 19
44 23 29
44 24 13
44 25 1
44 26 37
44 27 2
44 28 15
44 29 31
44 30 25
44 31 14
44 32 8
44 33 23
44 34 20
44 35 1
44 36 25
44 37 36
44 38 13
44 39 31
44 40 40
44 41 3
44 42 36
44 43 15
45 0 17
45 1 22
45 2 10
45 3 29
45 4 14
45 5 26
45 6 30
45 7 38
45 8 29
45 9 7
45 10 29
45 11 11
45 12 24
45 13 4
45 14 25
45 15 29
45 16 38
45 17 8
45 18 26
45 19 9
45 20 35
45 21 26
45 22 37
45 23 24
45 24 28
45 25 33
45 26 9
45 27 5
45 28 30
45 29 28
45 30 24
45 31 9
45 32 16
45 33 28
45 34 11
45 35 11
45 36 33
45 37 31
45 38 38
45 39 7
45 40 40
45 41 16
45 42 3
45 43 31
45 44 4
46 0 15
46 1 3
46 2 3
46 3 36
46 4 27
46 5 5
46 6 23
46 7 34
46 8 1
46 9 19
46 10 15
46 11 19
46 12 27
46 13 5
46 14 8
46 15 29
46 16 21
46 17 11
46 18 32
46 19 6
46 20 33
46 21 4
46 22 34
46 23 7
46 24 38
46 25 25
46 26 17
46 27 36
46 28 30
46 29 29
46 30 3
46 31 37
46 32 2
46 33 26
46 34 29
46 35 15
46 36 28
46 37 24
46 38 26
46 39 2
46 40 22
46 41 33
46 42 1
46 43 19
46 44 12
46 45 1
47 0 11
47 1 1
47 2 30
47 3 21
47 4 35
47 5 20
47 6 22
47 7 18
47 8 15
47 9 9
47 10 31
47 11 8
47 12 39
47 13 31
47 14 8
47 15 23
47 16 26
47 17 24
47 18 17
47 19 35
47 20 39
47 21 31
47 22 22
47 23 5
47 24 32
47 25 29
47 26 29
47 27 36
47 28 30
47 29 34
47 30 14
47 31 4
47 32 39
47 33 38
47 34 33
47 35 18
47 36 27
47 37 15
47 38 13
47 39 2
47 40 19
47 41 1
47 42 28
47 43 36
47 44 15
47 45 23
47 46 30
48 0 18
48 1 5
48 2 30
48 3 9
48 4 7
48 5 10
48 6 22
48 7 23
48 8 12
48 9 31
48 10 10
48 11 2
48 12 37
48 13 29
48 14 12
48 15 30
48 16 35
48 17 27
48 18 1
48 19 35
48 20 25
48 21 9
48 22 29
48 23 1
48 24 21
48 25 36
48 26 33
48 27 19
48 28 25
48 29 32
48 30 29
48 31 31
48 32 28
48 33 22
48 34 10
48 35 2
48 36 38
48 37 21
48 38 6
48 39 26
48 40 3
48 41 8
48 42 7
48 43 21
48 44 7
48 45 21
48 46 40
48 47 40
49 0 37
49 1 39
49 2 34
49 3 2
49 4 39
49 5 31
49 6 20
49 7 6
49 8 16
49 9 36
49 10 36
49 11 16
49 12 34
49 13 23
49 14 5
49 15 22
49 16 14
49 17 34
49 18 37
49 19 28
49 20 17
49 21 30
49 22 37
49 23 24
49 24 30
49 25 35
49 26 40
49 27 39
49 28 1
49 29 22
49 30 21
49 31 27
49 32 33
49 33 3
49 34 1
49 35 38
49 36 28
49 37 10
49 38 16
49 39 17
49 40 38
49 41 30
49 42 20
49 43 38
49 44 20
49 45 19
49 46 40
49 47 20
49 48 33
50 0 13
50 1 22
50 2 29
50 3 20
50 4 6
50 5 2
50 6 24
50 7 30
50 8 12
50 9 8
50 10 21
50 11 31
50 12 14
50 13 29
50 14 30
50 15 6
50 16 4
50 17 40
50 18 4
50 19 5
50 20 25
50 21 40
50 22 4
50 23 2
50 24 40
50 25 31
50 26 40
50 27 38
50 28 7
50 29 31
50 30 33
50 31 39
50 32 35
50 33 31
50 34 28
50 35 28
50 36 30
50 37 14
50 38 23
50 39 27
50 40 39
50 41 2
50 42 38
50 43 22
50 44 3
50 45 25
50 46 4
50 47 9
50 48 26
50 49 2
51 0 10
51 1 29
51 2 12
51 3 18
51 4 13
51 5 8
51 6 1
51 7 24
51 8 13
51 9 34
51 10 29
51 11 2
51 12 25
51 13 39
51 14 24
51 15 40
51 16 25
51 17 3
51 18 29
51 19 13
51 20 22
51 21 5
51 22 38
51 23 22
51 24 4
51 25 11
51 26 38
51 27 12
51 28 32
51 29 9
51 30 5
51 31 7
51 32 34
51 33 36
51 34 22
51 35 21
51 36 27
51 37 14
51 38 11
51 39 23
51 40 38
51 41 4
51 42 32
51 43 17
51 44 22
51 45 4
51 46 2
51 47 11
51 48 20
51 49 6
51 50 32
52 0 39
52 1 6
52 2 26
52 3 2
52 4 12
52 5 13
52 6 19
52 7 21
52 8 36
52 9 25
52 10 36
52 11 5
52 12 39
52 13 16
52 14 39
52 15 36
52 16 17
52 17 16
52 18 32
52 19 35
52 20 34
52 21 26
52 22 25
52 23 9
52 24 21
52 25 5
52 26 32
52 27 29
52 28 8
52 29 20
52 30 29
52 31 27
52 32 29
52 33 39
52 34 22
52 35 15
52 36 22
52 37 35
52 38 12
52 39 11
52 40 19
52 41 16
52 42 23
52 43 35
52 44 21
52 45 38
52 46 40
52 47 25
52 48 31
52 49 1
52 50 6
52 51 32
53 0 4
53 1 10
53 2 19
53 3 15
53 4 30
53 5 3
53 6 22
53 7 18
53 8 35
53 9 22
53 10 37
53 11 19
53 12 14
53 13 39
53 14 38
53 15 32
53 16 35
53 17 11
53 18 13
53 19 31
53 20 32
53 21 16
53 22 40
53 23 26
53 24 16
53 25 16
53 26 33
53 27 39
53 28 19
53 29 23
53 30 9
53 31 22
53 32 16
53 33 3
53 34 21
53 35 22
53 36 13
53 37 34
53 38 26
53 39 30
53 40 30
53 41 28
53 42 39
53 43 1
53 44 33
53 45 36
53 46 22
53 47 7
53 48 11
53 49 30
53 50 23
53 51 15
53 52 19
54 0 34
54 1 16
54 2 5
54 3 19
54 4 39
54 5 33
54 6 31
54 7 24
54 8 2
54 9 37
54 10 11
54 11 5
54 12 14
54 13 24
54 14 15
54 15 5
54 16 39
54 17 14
54 18 14
54 19 25
54 20 18
54 21 7
54 22 15
54 23 14
54 24 26
54 25 25
54 26 35
54 27 39
54 28 27
54 29 12
54 30 15
54 31 26
54 32 8
54 33 6
54 34 34
54 35 33
54 36 25
54 37 37
54 38 27
54 39 15
54 40 36
54 41 3
54 42 17
54 43 34
54 44 26
54 45 6
54 46 8
54 47 25
54 48 19
54 49 19
54 50 19
54 51 15
54 52 11
54 53 31
55 0 9
55 1 5
55 2 30
55 3 38
55 4 8
55 5 17
55 6 34
55 7 38
55 8 21
55 9 2
55 10 24
55 11 35
55 12 24
55 13 29
55 14 17
55 15 18
55 16 27
55 17 39
55 18 13
55 19 22
55 20 39
55 21 12
55 22 9
55 23 14
55 24 23
55 25 29
55 26 10
55 27 26
55 28 12
55 29 4
55 30 36
55 31 38
55 32 8
55 33 11
55 34 28
55 35 23
55 36 30
55 37 4
55 38 5
55 39 3
55 40 19
55 41 32
55 42 12
55 43 11
55 44 34
55 45 19
55 46 36
55 47 4
55 48 17
55 49 21
55 50 29
55 51 36
55 52 38
55 53 8
55 54 20
56 0 36
56 1 23
56 2 30
56 3 19
56 4 36
56 5 16
56 6 32
56 7 34
56 8 22
56 9 15
56 10 36
56 11 16
56 12 34
56 13 31
56 14 18
56 15 23
56 16 11
56 17 5
56 18 17
56 19 3
56 20 2
56 21 2
56 22 14
56 23 23
56 24 30
56 25 30
56 26 39
56 27 4
56 28 20
56 29 31
56 30 10
56 31 16
56 32 38
56 33 9
56 34 15
56 35 4
56 36 30
56 37 2
56 38 18
56 39 29
56 40 10
56 41 24
56 42 31
56 43 22
56 44 14
56 45 29
56 46 34
56 47 2
56 48 39
56 49 39
56 50 25
56 51 24
56 52 31
56 53 9
56 54 17
56 55 13
57 0 17
57 1 39
57 2 38
57 3 20
57 4 11
57 5 28
57 6 38
57 7 30
57 8 40
57 9 38
57 10 15
57 11 6
57 12 5
57 13 30
57 14 32
57 15 29
57 16 8
57 17 1
57 18 15
57 19 5
57 20 26
57 21 19
57 22 17
57 23 21
57 24 21
57 25 28
57 26 12
57 27 33
57 28 35
57 29 7
57 30 25
57 31 28
57 32 8
57 33 13
57 34 31
57 35 14
57 36 30
57 37 7
57 38 21
57 39 33
57 40 35
57 41 37
57 42 29
57 43 6
57 44 5
57 45 22
57 46 14
57 47 36
57 48 4
57 49 14
57 50 32
57 51 26
57 52 15
57 53 38
57 54 1
57 55 23
57 56 37
58 0 16
58 1 17
58 2 20
58 3 17
58 4 1
58 5 21
58 6 18
58 7 5
58 8 14
58 9 10
58 10 36
58 11 33
58 12 12
58 13 36
58 14 21
58 15 21
58 16 22
58 17 14
58 18 24
58 19 4
58 20 20
58 21 8
58 22 31
58 23 1
58 24 13
58 25 24
58 26 28
58 27 39
58 28 12
58 29 3
58 30 26
58 31 32
58 32 2
58 33 36
58 34 18
58 35 7
58 36 24
58 37 10
58 38 34
58 39 3
58 40 14
58 41 27
58 42 27
58 43 31
58 44 9
58 45 22
58 46 40
58 47 40
58 48 30
58 49 5
58 50 12
58 51 15
58 52 40
58 53 1
58 54 22
58 55 16
58 56 6
58 57 29
59 0 12
59 1 31
59 2 18
59 3 23
59 4 25
59 5 15
59 6 37
59 7 21
59 8 1
59 9 15
59 10 32
59 11 17
59 12 7
59 13 27
59 14 33
59 15 26
59 16 32
59 17 6
59 18 21
59 19 15
59 20 37
59 21 15
59 22 20
59 23 30
59 24 31
59 25 13
59 26 12
59 27 37
59 28 23
59 29 34
59 30 36
59 31 19
59 32 13
59 33 30
59 34 20
59 35 35
59 36 4
59 37 9
59 38 40
59 39 35
59 40 24
59 41 28
59 42 1
59 43 4
59 44 2
59 45 11
59 46 29
59 47 4
59 48 18
59 49 24
59 50 25
59 51 29
59 52 38
59 53 22
59 54 7
59 55 27
59 56 29
59 57 8
59 58 33
